1 1 -2 0
1 1 -3 0
1 1 -4 0
1 1 5 0
1 -2 4 0
1 2 1 0
1 -2 5 0
1 -6 -7 0
1 6 -8 0
1 6 -9 0
1 6 5 0
1 6 -10 0
1 11 -3 0
1 -11 4 0
1 -11 -9 0
1 -11 -12 0
1 11 6 0
1 -11 10 0
1 4 13 0
1 -4 -14 0
1 4 2 0
1 -4 -15 0
1 -4 16 0
1 -4 -6 0
1 -4 -1 0
1 -4 10 0
1 10 -17 0
1 -10 18 0
1 -10 -13 0
1 10 14 0
1 -10 11 0
1 -10 2 0
1 -10 4 0
1 -10 19 0
1 10 20 0
1 10 16 0
1 10 6 0
1 -10 1 0
1 3 -18 0
1 3 21 0
1 3 22 0
1 -3 -11 0
1 3 -23 0
1 -3 -24 0
1 -3 -1 0
1 -5 -18 0
1 -5 -22 0
1 5 2 0
1 5 -24 0
1 -5 25 0
1 -5 -26 0
1 16 -7 0
1 -16 8 0
1 16 -14 0
1 -16 -4 0
1 -16 -9 0
1 16 12 0
1 16 -25 0
1 14 22 0
1 -14 -4 0
1 14 -9 0
1 14 16 0
1 14 10 0
1 -20 -8 0
1 20 -13 0
1 -20 -27 0
1 -20 4 0
1 20 -9 0
1 -20 12 0
1 -20 28 0
1 -20 -24 0
1 -20 -29 0
1 -20 -10 0
1 13 -7 0
1 13 -21 0
1 -13 -27 0
1 -13 4 0
1 13 -20 0
1 13 -28 0
1 -13 29 0
1 13 -10 0
1 -12 -30 0
1 12 -31 0
1 12 -8 0
1 -12 -13 0
1 12 -11 0
1 12 32 0
1 -12 33 0
1 12 -34 0
1 12 -20 0
1 12 -16 0
1 12 6 0
1 8 30 0
1 -8 13 0
1 -8 11 0
1 -8 32 0
1 -8 33 0
1 -8 34 0
1 8 12 0
1 -8 20 0
1 8 -6 0
1 -8 35 0
1 -9 7 0
1 9 -13 0
1 -9 36 0
1 9 20 0
1 9 16 0
1 -9 -35 0
1 -7 37 0
1 -7 11 0
1 -7 -9 0
1 -7 -36 0
1 7 -16 0
1 34 -8 0
1 -34 -38 0
1 -34 -27 0
1 34 -19 0
1 -31 18 0
1 -31 -27 0
1 -31 -34 0
1 -31 29 0
1 33 -8 0
1 33 38 0
1 -33 -27 0
1 33 -36 0
1 -33 29 0
1 -30 -37 0
1 -30 -38 0
1 30 27 0
1 -30 -33 0
1 30 -12 0
1 30 29 0
1 -29 30 0
1 -29 31 0
1 29 27 0
1 -29 -33 0
1 27 -30 0
1 -27 -13 0
1 27 -34 0
1 27 -20 0
1 27 29 0
1 -28 31 0
1 28 13 0
1 28 -32 0
1 -28 -33 0
1 -28 20 0
1 -28 -39 0
1 -28 -35 0
1 -38 30 0
1 -38 31 0
1 38 13 0
1 38 40 0
1 -38 32 0
1 38 33 0
1 38 34 0
1 -38 -20 0
1 -38 -28 0
1 38 -35 0
1 25 -22 0
1 -25 -41 0
1 25 42 0
1 -25 -43 0
1 -25 5 0
1 22 -44 0
1 22 -41 0
1 22 3 0
1 -22 42 0
1 22 -43 0
1 22 5 0
1 24 -21 0
1 24 45 0
1 24 46 0
1 24 -3 0
1 -24 42 0
1 -24 -20 0
1 -24 -47 0
1 21 -44 0
1 21 -41 0
1 -21 -46 0
1 21 -3 0
1 -21 48 0
1 21 -47 0
1 41 43 0
1 41 37 0
1 41 -21 0
1 -41 22 0
1 41 36 0
1 -41 19 0
1 -41 -24 0
1 -41 -25 0
1 -43 -21 0
1 43 22 0
1 -43 19 0
1 -43 24 0
1 -44 -21 0
1 44 -42 0
1 -44 24 0
1 42 22 0
1 -19 18 0
1 19 46 0
1 -19 3 0
1 19 34 0
1 -19 43 0
1 -19 48 0
1 18 -7 0
1 -18 -31 0
1 18 45 0
1 -18 3 0
1 18 -4 0
1 -18 9 0
1 18 -43 0
1 -18 -5 0
1 -36 17 0
1 36 -37 0
1 36 41 0
1 36 -46 0
1 36 -23 0
1 36 -15 0
1 36 -9 0
1 -36 43 0
1 -36 48 0
1 36 -47 0
1 37 30 0
1 37 -7 0
1 -37 -41 0
1 37 -23 0
1 37 36 0
1 37 48 0
1 37 47 0
1 -46 -37 0
1 46 40 0
1 -46 32 0
1 46 -36 0
1 -46 -19 0
1 -46 24 0
1 -46 35 0
1 47 -37 0
1 -47 18 0
1 47 21 0
1 47 -46 0
1 -47 -40 0
1 47 32 0
1 -47 36 0
1 47 -19 0
1 -47 39 0
1 47 35 0
1 45 -36 0
1 -45 -19 0
1 45 24 0
1 45 -48 0
1 48 37 0
1 48 18 0
1 -48 21 0
1 48 45 0
1 -48 36 0
1 -48 19 0
1 32 17 0
1 32 -8 0
1 -32 -38 0
1 -32 -46 0
1 -32 23 0
1 32 -9 0
1 -32 15 0
1 -32 12 0
1 32 -47 0
1 32 26 0
1 -32 35 0
1 35 -17 0
1 -35 8 0
1 35 38 0
1 35 -23 0
1 -35 -15 0
1 -35 9 0
1 -40 17 0
1 -40 46 0
1 -40 23 0
1 -40 -15 0
1 -40 28 0
1 40 47 0
1 -40 -39 0
1 40 26 0
1 39 38 0
1 39 46 0
1 39 -23 0
1 39 -15 0
1 -15 -17 0
1 -15 32 0
1 15 -4 0
1 -15 -35 0
1 17 37 0
1 17 -32 0
1 -17 -36 0
1 17 -10 0
1 -17 39 0
1 23 -37 0
1 -23 -40 0
1 23 36 0
1 23 -39 0
1 23 35 0
1 -26 -40 0
1 26 23 0
1 -26 36 0
1 26 5 0
1 26 -39 0
